
Gurobi 11.0.0 (linux64) logging started Mon Jul 22 11:46:57 2024

Set parameter LogFile to value "/lustre1/scratch/348/vsc34888/JointResearch/05.Models/06.Benchmarking/M.Random_forest/RTS24_mod1_ByStages_nc400/openStarNet_RTS24_mod1_ByStages_nc400.log"
Set parameter Method to value 2
Set parameter MIPFocus to value 1
Set parameter Presolve to value 2
Set parameter RINS to value 100
Set parameter MIPGap to value 0.01
Set parameter Threads to value 36
Set parameter TimeLimit to value 259200
Set parameter IterationLimit to value 760000000
Gurobi Optimizer version 11.0.0 build v11.0.0rc2 (linux64 - "Rocky Linux 8.9 (Green Obsidian)")

CPU model: Intel(R) Xeon(R) Gold 6240 CPU @ 2.60GHz, instruction set [SSE2|AVX|AVX2|AVX512]
Thread count: 36 physical cores, 36 logical processors, using up to 36 threads

Optimize a model with 142003 rows, 95855 columns and 387184 nonzeros
Model fingerprint: 0xa0ca5a54
Variable types: 95834 continuous, 21 integer (21 binary)
Coefficient statistics:
  Matrix range     [1e-03, 3e+02]
  Objective range  [1e+00, 1e+00]
  Bounds range     [3e-05, 3e+00]
  RHS range        [3e-05, 3e+00]
Presolve removed 84568 rows and 48639 columns
Presolve time: 0.59s
Presolved: 57435 rows, 47216 columns, 207390 nonzeros
Variable types: 47195 continuous, 21 integer (21 binary)
Root relaxation presolved: 57435 rows, 47216 columns, 207390 nonzeros

Root barrier log...

Ordering time: 0.02s

Barrier statistics:
 Dense cols : 21
 AA' NZ     : 3.853e+05
 Factor NZ  : 1.123e+06 (roughly 50 MB of memory)
 Factor Ops : 2.576e+07 (less than 1 second per iteration)
 Threads    : 35

                  Objective                Residual
Iter       Primal          Dual         Primal    Dual     Compl     Time
   0   6.66494537e+05 -1.15818945e+08  5.34e+00 4.53e+01  2.44e+03     1s
   1   1.06914140e+05 -3.01379463e+07  7.14e-01 1.44e-08  3.43e+02     1s
   2   4.29941082e+04 -1.64508352e+07  1.85e-01 6.34e-09  1.43e+02     1s
   3   2.16274800e+04 -1.55258978e+06  4.98e-03 2.65e-09  1.19e+01     1s
   4   1.21290700e+04 -2.04201633e+05  1.70e-13 4.22e-10  1.62e+00     1s
   5   4.66181651e+03 -5.17966950e+04  1.90e-13 1.15e-10  4.22e-01     1s
   6   1.39062550e+03 -1.16897836e+04  1.47e-13 2.23e-11  9.78e-02     1s
   7   5.80071118e+02 -3.31812857e+03  1.18e-13 6.27e-12  2.91e-02     1s
   8   3.46992286e+02 -1.24121313e+03  8.35e-14 2.17e-12  1.19e-02     1s
   9   2.22677230e+02 -5.36959976e+02  8.17e-14 9.45e-13  5.68e-03     1s
  10   1.27924765e+02 -2.12049771e+02  1.12e-13 4.55e-13  2.54e-03     1s
  11   9.60481210e+01 -4.76747047e+01  2.38e-13 4.55e-13  1.07e-03     1s
  12   8.13963702e+01  1.22222759e+01  2.21e-13 4.55e-13  5.17e-04     1s
  13   7.15097312e+01  1.61531894e+01  2.66e-13 4.55e-13  4.14e-04     1s
  14   6.92026670e+01  2.46385441e+01  2.99e-13 2.27e-13  3.33e-04     1s
  15   6.71016530e+01  2.76873481e+01  4.17e-13 4.55e-13  2.95e-04     1s
  16   6.56164284e+01  3.37081097e+01  3.25e-13 4.55e-13  2.39e-04     1s
  17   6.26477398e+01  4.01778206e+01  9.81e-13 9.09e-13  1.68e-04     1s
  18   5.90572817e+01  4.25450275e+01  2.03e-12 9.09e-13  1.23e-04     1s
  19   5.75799226e+01  4.61238559e+01  5.46e-12 9.09e-13  8.56e-05     1s
  20   5.69526084e+01  4.67990775e+01  4.37e-12 9.09e-13  7.59e-05     1s
  21   5.66813339e+01  4.87589627e+01  4.06e-12 4.55e-13  5.92e-05     1s
  22   5.56248228e+01  4.89593881e+01  1.21e-11 2.27e-13  4.98e-05     2s
  23   5.49481215e+01  4.97517717e+01  1.84e-11 2.27e-13  3.88e-05     2s
  24   5.45908779e+01  5.08219040e+01  1.42e-11 2.27e-13  2.82e-05     2s
  25   5.41653960e+01  5.15259896e+01  3.75e-11 4.55e-13  1.97e-05     2s
  26   5.38769325e+01  5.21931869e+01  2.70e-11 4.55e-13  1.26e-05     2s
  27   5.37765254e+01  5.22556948e+01  2.00e-11 2.27e-13  1.14e-05     2s
  28   5.37138516e+01  5.23759342e+01  2.18e-11 4.55e-13  1.00e-05     2s
  29   5.36613420e+01  5.25850894e+01  1.64e-11 2.27e-13  8.05e-06     2s
  30   5.35567130e+01  5.26020769e+01  4.06e-11 2.27e-13  7.14e-06     2s
  31   5.35056224e+01  5.26491584e+01  3.10e-11 4.55e-13  6.40e-06     2s
  32   5.34898050e+01  5.26886755e+01  3.19e-11 4.55e-13  5.99e-06     2s
  33   5.34714995e+01  5.29193832e+01  2.57e-11 2.27e-13  4.13e-06     2s
  34   5.34490800e+01  5.29645580e+01  2.59e-11 2.27e-13  3.62e-06     2s
  35   5.34389671e+01  5.30518849e+01  2.17e-11 2.27e-13  2.89e-06     2s
  36   5.34228509e+01  5.30636972e+01  2.07e-11 2.27e-13  2.68e-06     2s
  37   5.33880151e+01  5.31691462e+01  4.81e-11 4.55e-13  1.64e-06     2s
  38   5.33736046e+01  5.31926146e+01  4.57e-11 4.55e-13  1.35e-06     2s
  39   5.33663998e+01  5.32357492e+01  4.56e-11 2.27e-13  9.77e-07     2s
  40   5.33422470e+01  5.32590968e+01  4.92e-11 4.55e-13  6.22e-07     2s
  41   5.33387788e+01  5.32675020e+01  3.92e-11 4.55e-13  5.33e-07     2s
  42   5.33286749e+01  5.32950524e+01  8.61e-11 2.27e-13  2.51e-07     2s
  43   5.33274502e+01  5.33164070e+01  7.26e-11 2.27e-13  8.26e-08     2s
  44   5.33259951e+01  5.33216420e+01  7.83e-11 2.27e-13  3.25e-08     2s
  45   5.33256236e+01  5.33226576e+01  5.67e-11 2.27e-13  2.22e-08     2s
  46   5.33254544e+01  5.33227668e+01  6.08e-11 4.55e-13  2.01e-08     2s
  47   5.33253608e+01  5.33231690e+01  5.28e-11 2.27e-13  1.64e-08     2s
  48   5.33252119e+01  5.33239767e+01  3.42e-11 2.27e-13  9.23e-09     2s
  49   5.33250893e+01  5.33242720e+01  7.15e-10 2.27e-13  6.11e-09     2s
  50   5.33250371e+01  5.33246302e+01  6.85e-10 3.13e-12  3.04e-09     2s
  51   5.33249742e+01  5.33247003e+01  2.43e-10 2.63e-12  2.05e-09     2s
  52   5.33249337e+01  5.33247451e+01  3.16e-10 1.57e-12  1.41e-09     2s
  53   5.33249321e+01  5.33247685e+01  3.25e-10 4.55e-13  1.22e-09     2s
  54   5.33249301e+01  5.33247808e+01  3.55e-10 2.59e-12  1.12e-09     2s
  55   5.33249277e+01  5.33248647e+01  2.52e-10 1.07e-12  4.71e-10     2s
  56   5.33249254e+01  5.33248794e+01  8.54e-10 2.27e-13  3.44e-10     2s
  57   5.33249251e+01  5.33248805e+01  7.29e-10 2.31e-13  3.33e-10     2s
  58   5.33249245e+01  5.33249013e+01  6.72e-10 2.93e-13  1.74e-10     2s
  59   5.33249237e+01  5.33249215e+01  1.17e-10 4.55e-13  1.67e-11     2s
  60   5.33249236e+01  5.33249236e+01  1.22e-10 4.55e-13  2.91e-13     2s

Barrier solved model in 60 iterations and 2.43 seconds (2.24 work units)
Optimal objective 5.33249236e+01


Root relaxation: objective 5.332492e+01, 8855 iterations, 2.17 seconds (1.85 work units)

    Nodes    |    Current Node    |     Objective Bounds      |     Work
 Expl Unexpl |  Obj  Depth IntInf | Incumbent    BestBd   Gap | It/Node Time

     0     0   53.32492    0   18          -   53.32492      -     -    4s
H    0     0                     103.6659863   53.32492  48.6%     -    5s
     0     0   54.23506    0   10  103.66599   54.23506  47.7%     -    9s
H    0     0                      99.9053392   54.23506  45.7%     -   10s
H    0     0                      93.4297207   54.30226  41.9%     -   11s
     0     0   54.36326    0   12   93.42972   54.36326  41.8%     -   11s
H    0     0                      90.1978943   54.54608  39.5%     -   13s
     0     0   54.54608    0   12   90.19789   54.54608  39.5%     -   14s
     0     0   54.56953    0   13   90.19789   54.56953  39.5%     -   16s
H    0     0                      86.7849653   54.57141  37.1%     -   16s
     0     0   54.57141    0   11   86.78497   54.57141  37.1%     -   16s
     0     0   54.57187    0   11   86.78497   54.57187  37.1%     -   17s
     0     0   54.57211    0   11   86.78497   54.57211  37.1%     -   17s
     0     0   54.57212    0   11   86.78497   54.57212  37.1%     -   17s
H    0     0                      84.7568606   54.68816  35.5%     -   19s
     0     0   54.68816    0   13   84.75686   54.68816  35.5%     -   19s
H    0     0                      84.0271917   54.70148  34.9%     -   20s
     0     0   54.87677    0   11   84.02719   54.87677  34.7%     -   20s
     0     0   54.87677    0   10   84.02719   54.87677  34.7%     -   21s
     0     0   54.87677    0   11   84.02719   54.87677  34.7%     -   21s
     0     0   54.87677    0   11   84.02719   54.87677  34.7%     -   21s
H    0     0                      82.5626577   54.89106  33.5%     -   21s
     0     0   54.89106    0   11   82.56266   54.89106  33.5%     -   21s
     0     0   54.89106    0   12   82.56266   54.89106  33.5%     -   23s
     0     0   55.42927    0   13   82.56266   55.42927  32.9%     -   24s
     0     0   55.42927    0   13   82.56266   55.42927  32.9%     -   24s
     0     0   55.42927    0   11   82.56266   55.42927  32.9%     -   29s
H    0     0                      71.8504954   55.42927  22.9%     -   99s
     0     2   55.42927    0   11   71.85050   55.42927  22.9%     -  100s
     3     8   55.69852    2   14   71.85050   55.42927  22.9%  5400  107s
     7    16   56.10750    3   13   71.85050   55.78530  22.4%  4623  110s
    31    60   58.05026    5   16   71.85050   56.93484  20.8%  4020  123s
    63    96   60.12768    6   15   71.85050   58.02986  19.2%  5575  137s
    99   132   62.08920    7   14   71.85050   58.03831  19.2%  4681  188s
   135   158   64.70668    8   13   71.85050   59.19564  17.6%  4116  192s
   171   186     cutoff    8        71.85050   59.19564  17.6%  3848  197s
   207   216   68.10396    9   12   71.85050   59.19564  17.6%  3600  203s
   259   234   71.18682    9   12   71.85050   59.19564  17.6%  3336  207s
   307   251   70.43083   10   11   71.85050   59.19564  17.6%  3210  213s
   356   268     cutoff   11        71.85050   59.19564  17.6%  3097  217s
   411   285     cutoff   10        71.85050   59.24541  17.5%  3009  222s
   472   296   69.91364    8   12   71.85050   59.24541  17.5%  2930  226s
   535   298     cutoff    9        71.85050   59.24541  17.5%  2840  233s
   596   302     cutoff    8        71.85050   59.71170  16.9%  2807  239s
   659   315   71.72099    8   12   71.85050   59.71170  16.9%  2809  245s
   734   315     cutoff    9        71.85050   60.53880  15.7%  2718  252s
   815   296   70.73007    9   12   71.85050   60.53880  15.7%  2643  257s
   911   318     cutoff   10        71.85050   60.53880  15.7%  2569  263s
   988   315     cutoff   10        71.85050   60.71699  15.5%  2557  330s
  1055   322   70.05594   12    9   71.85050   60.71699  15.5%  2520  337s
  1162   322     cutoff   13        71.85050   60.71699  15.5%  2468  343s
  1279   321   70.19530   13    8   71.85050   60.71699  15.5%  2394  349s
  1413   321   70.41407   14    7   71.85050   60.71699  15.5%  2305  355s
  1549   319     cutoff   16        71.85050   62.42178  13.1%  2246  361s
  1689   312   67.93995    8    9   71.85050   62.42178  13.1%  2191  366s
  1842   311     cutoff   10        71.85050   62.42178  13.1%  2125  372s
  1991   290     cutoff   10        71.85050   62.42178  13.1%  2074  378s
  2165   261     cutoff   10        71.85050   62.42178  13.1%  2013  385s
  2344   243     cutoff   14        71.85050   64.70245  9.95%  1962  391s
  2518   185   67.05648   11   10   71.85050   66.65240  7.23%  1911  398s
  2706   141   70.65897   12    9   71.85050   67.12992  6.57%  1869  403s
  2905    86     cutoff   13        71.85050   67.12992  6.57%  1813  408s
  3098    48     cutoff   15        71.85050   68.64850  4.46%  1752  676s
  3200    29     cutoff   10        71.85050   69.62950  3.09%  1726 1110s

Cutting planes:
  Implied bound: 117
  MIR: 1369
  Relax-and-lift: 202

Explored 3317 nodes (5646596 simplex iterations) in 1115.02 seconds (1520.38 work units)
Thread count was 36 (of 36 available processors)

Solution count 9: 71.8505 82.5627 84.0272 ... 103.666

Optimal solution found (tolerance 1.00e-02)
Best objective 7.185049542424e+01, best bound 7.185049542424e+01, gap 0.0000%

Gurobi 11.0.0 (linux64) logging started Mon Jul 22 12:06:39 2024

Set parameter LogFile to value "/lustre1/scratch/348/vsc34888/JointResearch/05.Models/06.Benchmarking/M.Random_forest/RTS24_mod1_ByStages_nc400/openStarNet_RTS24_mod1_ByStages_nc400.log"
Set parameter Method to value 2
Set parameter MIPFocus to value 1
Set parameter Presolve to value 2
Set parameter RINS to value 100
Set parameter MIPGap to value 0.01
Set parameter Threads to value 36
Set parameter TimeLimit to value 259200
Set parameter IterationLimit to value 760000000
Gurobi Optimizer version 11.0.0 build v11.0.0rc2 (linux64 - "Rocky Linux 8.9 (Green Obsidian)")

CPU model: Intel(R) Xeon(R) Gold 6240 CPU @ 2.60GHz, instruction set [SSE2|AVX|AVX2|AVX512]
Thread count: 36 physical cores, 36 logical processors, using up to 36 threads

Optimize a model with 142003 rows, 95834 columns and 353563 nonzeros
Model fingerprint: 0xba0ed7ed
Coefficient statistics:
  Matrix range     [1e-03, 3e+02]
  Objective range  [1e+00, 1e+00]
  Bounds range     [3e-05, 3e+00]
  RHS range        [3e-05, 2e+01]
Presolve removed 118987 rows and 54811 columns
Presolve time: 0.18s
Presolved: 23016 rows, 41739 columns, 105069 nonzeros

Ordering time: 0.00s

Barrier statistics:
 AA' NZ     : 6.268e+04
 Factor NZ  : 2.035e+05 (roughly 23 MB of memory)
 Factor Ops : 2.675e+06 (less than 1 second per iteration)
 Threads    : 36

                  Objective                Residual
Iter       Primal          Dual         Primal    Dual     Compl     Time
   0   4.00105507e+06 -4.08554131e+07  4.58e+01 2.51e+01  9.15e+03     0s
   1   2.24650280e+05 -3.03037669e+07  2.19e+00 9.56e-13  7.85e+02     0s
   2   5.90440619e+04 -8.08261392e+06  4.48e-01 1.81e-12  1.57e+02     0s
   3   2.54760889e+04 -1.01946778e+06  3.04e-02 8.53e-13  1.56e+01     0s
   4   1.62632334e+04 -3.54560000e+05  3.82e-03 5.68e-13  5.17e+00     0s
   5   7.96831656e+03 -1.01981455e+05  9.36e-05 4.65e-13  1.51e+00     0s
   6   2.71778307e+03 -2.05983983e+04  1.32e-05 2.27e-13  3.21e-01     0s
   7   9.36071122e+02 -4.54059075e+03  2.19e-06 2.27e-13  7.54e-02     0s
   8   4.65377926e+02 -1.43182221e+03  5.39e-07 2.27e-13  2.61e-02     0s
   9   3.00509870e+02 -5.91228657e+02  2.45e-07 1.14e-13  1.23e-02     0s
  10   2.20764801e+02 -2.43006632e+02  1.42e-07 1.14e-13  6.38e-03     0s
  11   1.30757961e+02 -7.64647786e+01  4.52e-08 1.14e-13  2.85e-03     0s
  12   8.80788002e+01  4.69390405e+01  8.97e-09 1.14e-13  5.66e-04     0s
  13   7.75952896e+01  6.09685113e+01  2.88e-09 2.27e-13  2.29e-04     0s
  14   7.43033503e+01  6.68207274e+01  1.15e-09 1.14e-13  1.03e-04     0s
  15   7.28531730e+01  6.97815066e+01  4.49e-10 1.14e-13  4.23e-05     0s
  16   7.22329117e+01  7.09995952e+01  1.64e-10 1.14e-13  1.70e-05     0s
  17   7.19770367e+01  7.14243471e+01  1.49e-10 1.14e-13  7.61e-06     0s
  18   7.18613430e+01  7.17446113e+01  1.93e-10 2.27e-13  1.61e-06     0s
  19   7.18560168e+01  7.18248145e+01  1.18e-10 1.14e-13  4.30e-07     0s
  20   7.18511965e+01  7.18496161e+01  6.75e-11 1.14e-13  2.18e-08     0s
  21   7.18505399e+01  7.18503523e+01  1.61e-10 1.14e-13  2.58e-09     0s
  22   7.18504955e+01  7.18504953e+01  1.17e-10 2.27e-13  2.61e-12     0s
  23   7.18504954e+01  7.18504954e+01  1.22e-10 2.27e-13  9.67e-18     0s

Barrier solved model in 23 iterations and 0.50 seconds (0.47 work units)
Optimal objective 7.18504954e+01

Crossover log...

    5070 DPushes remaining with DInf 0.0000000e+00                 1s
       0 DPushes remaining with DInf 0.0000000e+00                 1s

    1228 PPushes remaining with PInf 0.0000000e+00                 1s
       0 PPushes remaining with PInf 0.0000000e+00                 1s

  Push phase complete: Pinf 0.0000000e+00, Dinf 1.1765356e-13      1s

Iteration    Objective       Primal Inf.    Dual Inf.      Time
    1309    7.1850495e+01   0.000000e+00   0.000000e+00      1s

Use crossover to convert LP symmetric solution to basic solution...
Crossover log...

       0 DPushes remaining with DInf 0.0000000e+00                 1s

     892 PPushes remaining with PInf 0.0000000e+00                 1s
       0 PPushes remaining with PInf 0.0000000e+00                 1s

  Push phase complete: Pinf 0.0000000e+00, Dinf 1.2020258e-13      1s

Iteration    Objective       Primal Inf.    Dual Inf.      Time
    2341    7.1850495e+01   0.000000e+00   0.000000e+00      1s

Solved in 2341 iterations and 0.76 seconds (0.60 work units)
Optimal objective  7.185049542e+01
